c File: flat100_3_0.col
c
c SOURCE: Joseph Culberson (joe@cs.ualberta.ca)
c DESCRIPTION: Quasi-random coloring problem
c              generated with flatness = 0
c                             probability = 0.072
c                             known coloring = 3
c                             random seed = 1100
c              Creation Date:  Thu Jun  4 18:57:13 1998
c Maximum degree = 8 Minimum degree = 1
c p edge 100 239
c cnf created by edge2cnf
p cnf 300 1117
-1 -2 0
-1 -3 0
-2 -3 0
1 2 3 0
-4 -5 0
-4 -6 0
-5 -6 0
4 5 6 0
-7 -8 0
-7 -9 0
-8 -9 0
7 8 9 0
-10 -11 0
-10 -12 0
-11 -12 0
10 11 12 0
-13 -14 0
-13 -15 0
-14 -15 0
13 14 15 0
-16 -17 0
-16 -18 0
-17 -18 0
16 17 18 0
-19 -20 0
-19 -21 0
-20 -21 0
19 20 21 0
-22 -23 0
-22 -24 0
-23 -24 0
22 23 24 0
-25 -26 0
-25 -27 0
-26 -27 0
25 26 27 0
-28 -29 0
-28 -30 0
-29 -30 0
28 29 30 0
-31 -32 0
-31 -33 0
-32 -33 0
31 32 33 0
-34 -35 0
-34 -36 0
-35 -36 0
34 35 36 0
-37 -38 0
-37 -39 0
-38 -39 0
37 38 39 0
-40 -41 0
-40 -42 0
-41 -42 0
40 41 42 0
-43 -44 0
-43 -45 0
-44 -45 0
43 44 45 0
-46 -47 0
-46 -48 0
-47 -48 0
46 47 48 0
-49 -50 0
-49 -51 0
-50 -51 0
49 50 51 0
-52 -53 0
-52 -54 0
-53 -54 0
52 53 54 0
-55 -56 0
-55 -57 0
-56 -57 0
55 56 57 0
-58 -59 0
-58 -60 0
-59 -60 0
58 59 60 0
-61 -62 0
-61 -63 0
-62 -63 0
61 62 63 0
-64 -65 0
-64 -66 0
-65 -66 0
64 65 66 0
-67 -68 0
-67 -69 0
-68 -69 0
67 68 69 0
-70 -71 0
-70 -72 0
-71 -72 0
70 71 72 0
-73 -74 0
-73 -75 0
-74 -75 0
73 74 75 0
-76 -77 0
-76 -78 0
-77 -78 0
76 77 78 0
-79 -80 0
-79 -81 0
-80 -81 0
79 80 81 0
-82 -83 0
-82 -84 0
-83 -84 0
82 83 84 0
-85 -86 0
-85 -87 0
-86 -87 0
85 86 87 0
-88 -89 0
-88 -90 0
-89 -90 0
88 89 90 0
-91 -92 0
-91 -93 0
-92 -93 0
91 92 93 0
-94 -95 0
-94 -96 0
-95 -96 0
94 95 96 0
-97 -98 0
-97 -99 0
-98 -99 0
97 98 99 0
-100 -101 0
-100 -102 0
-101 -102 0
100 101 102 0
-103 -104 0
-103 -105 0
-104 -105 0
103 104 105 0
-106 -107 0
-106 -108 0
-107 -108 0
106 107 108 0
-109 -110 0
-109 -111 0
-110 -111 0
109 110 111 0
-112 -113 0
-112 -114 0
-113 -114 0
112 113 114 0
-115 -116 0
-115 -117 0
-116 -117 0
115 116 117 0
-118 -119 0
-118 -120 0
-119 -120 0
118 119 120 0
-121 -122 0
-121 -123 0
-122 -123 0
121 122 123 0
-124 -125 0
-124 -126 0
-125 -126 0
124 125 126 0
-127 -128 0
-127 -129 0
-128 -129 0
127 128 129 0
-130 -131 0
-130 -132 0
-131 -132 0
130 131 132 0
-133 -134 0
-133 -135 0
-134 -135 0
133 134 135 0
-136 -137 0
-136 -138 0
-137 -138 0
136 137 138 0
-139 -140 0
-139 -141 0
-140 -141 0
139 140 141 0
-142 -143 0
-142 -144 0
-143 -144 0
142 143 144 0
-145 -146 0
-145 -147 0
-146 -147 0
145 146 147 0
-148 -149 0
-148 -150 0
-149 -150 0
148 149 150 0
-151 -152 0
-151 -153 0
-152 -153 0
151 152 153 0
-154 -155 0
-154 -156 0
-155 -156 0
154 155 156 0
-157 -158 0
-157 -159 0
-158 -159 0
157 158 159 0
-160 -161 0
-160 -162 0
-161 -162 0
160 161 162 0
-163 -164 0
-163 -165 0
-164 -165 0
163 164 165 0
-166 -167 0
-166 -168 0
-167 -168 0
166 167 168 0
-169 -170 0
-169 -171 0
-170 -171 0
169 170 171 0
-172 -173 0
-172 -174 0
-173 -174 0
172 173 174 0
-175 -176 0
-175 -177 0
-176 -177 0
175 176 177 0
-178 -179 0
-178 -180 0
-179 -180 0
178 179 180 0
-181 -182 0
-181 -183 0
-182 -183 0
181 182 183 0
-184 -185 0
-184 -186 0
-185 -186 0
184 185 186 0
-187 -188 0
-187 -189 0
-188 -189 0
187 188 189 0
-190 -191 0
-190 -192 0
-191 -192 0
190 191 192 0
-193 -194 0
-193 -195 0
-194 -195 0
193 194 195 0
-196 -197 0
-196 -198 0
-197 -198 0
196 197 198 0
-199 -200 0
-199 -201 0
-200 -201 0
199 200 201 0
-202 -203 0
-202 -204 0
-203 -204 0
202 203 204 0
-205 -206 0
-205 -207 0
-206 -207 0
205 206 207 0
-208 -209 0
-208 -210 0
-209 -210 0
208 209 210 0
-211 -212 0
-211 -213 0
-212 -213 0
211 212 213 0
-214 -215 0
-214 -216 0
-215 -216 0
214 215 216 0
-217 -218 0
-217 -219 0
-218 -219 0
217 218 219 0
-220 -221 0
-220 -222 0
-221 -222 0
220 221 222 0
-223 -224 0
-223 -225 0
-224 -225 0
223 224 225 0
-226 -227 0
-226 -228 0
-227 -228 0
226 227 228 0
-229 -230 0
-229 -231 0
-230 -231 0
229 230 231 0
-232 -233 0
-232 -234 0
-233 -234 0
232 233 234 0
-235 -236 0
-235 -237 0
-236 -237 0
235 236 237 0
-238 -239 0
-238 -240 0
-239 -240 0
238 239 240 0
-241 -242 0
-241 -243 0
-242 -243 0
241 242 243 0
-244 -245 0
-244 -246 0
-245 -246 0
244 245 246 0
-247 -248 0
-247 -249 0
-248 -249 0
247 248 249 0
-250 -251 0
-250 -252 0
-251 -252 0
250 251 252 0
-253 -254 0
-253 -255 0
-254 -255 0
253 254 255 0
-256 -257 0
-256 -258 0
-257 -258 0
256 257 258 0
-259 -260 0
-259 -261 0
-260 -261 0
259 260 261 0
-262 -263 0
-262 -264 0
-263 -264 0
262 263 264 0
-265 -266 0
-265 -267 0
-266 -267 0
265 266 267 0
-268 -269 0
-268 -270 0
-269 -270 0
268 269 270 0
-271 -272 0
-271 -273 0
-272 -273 0
271 272 273 0
-274 -275 0
-274 -276 0
-275 -276 0
274 275 276 0
-277 -278 0
-277 -279 0
-278 -279 0
277 278 279 0
-280 -281 0
-280 -282 0
-281 -282 0
280 281 282 0
-283 -284 0
-283 -285 0
-284 -285 0
283 284 285 0
-286 -287 0
-286 -288 0
-287 -288 0
286 287 288 0
-289 -290 0
-289 -291 0
-290 -291 0
289 290 291 0
-292 -293 0
-292 -294 0
-293 -294 0
292 293 294 0
-295 -296 0
-295 -297 0
-296 -297 0
295 296 297 0
-298 -299 0
-298 -300 0
-299 -300 0
298 299 300 0
-175 -1 0
-176 -2 0
-177 -3 0
-217 -1 0
-218 -2 0
-219 -3 0
-220 -1 0
-221 -2 0
-222 -3 0
-238 -1 0
-239 -2 0
-240 -3 0
-139 -4 0
-140 -5 0
-141 -6 0
-226 -4 0
-227 -5 0
-228 -6 0
-232 -4 0
-233 -5 0
-234 -6 0
-235 -4 0
-236 -5 0
-237 -6 0
-142 -7 0
-143 -8 0
-144 -9 0
-157 -7 0
-158 -8 0
-159 -9 0
-160 -7 0
-161 -8 0
-162 -9 0
-175 -7 0
-176 -8 0
-177 -9 0
-247 -7 0
-248 -8 0
-249 -9 0
-286 -7 0
-287 -8 0
-288 -9 0
-163 -10 0
-164 -11 0
-165 -12 0
-244 -10 0
-245 -11 0
-246 -12 0
-259 -10 0
-260 -11 0
-261 -12 0
-265 -10 0
-266 -11 0
-267 -12 0
-274 -10 0
-275 -11 0
-276 -12 0
-112 -13 0
-113 -14 0
-114 -15 0
-145 -13 0
-146 -14 0
-147 -15 0
-163 -13 0
-164 -14 0
-165 -15 0
-289 -13 0
-290 -14 0
-291 -15 0
-187 -16 0
-188 -17 0
-189 -18 0
-205 -16 0
-206 -17 0
-207 -18 0
-277 -16 0
-278 -17 0
-279 -18 0
-289 -16 0
-290 -17 0
-291 -18 0
-115 -19 0
-116 -20 0
-117 -21 0
-142 -19 0
-143 -20 0
-144 -21 0
-238 -19 0
-239 -20 0
-240 -21 0
-250 -19 0
-251 -20 0
-252 -21 0
-130 -22 0
-131 -23 0
-132 -24 0
-154 -22 0
-155 -23 0
-156 -24 0
-166 -22 0
-167 -23 0
-168 -24 0
-175 -22 0
-176 -23 0
-177 -24 0
-232 -22 0
-233 -23 0
-234 -24 0
-268 -22 0
-269 -23 0
-270 -24 0
-277 -22 0
-278 -23 0
-279 -24 0
-286 -22 0
-287 -23 0
-288 -24 0
-127 -25 0
-128 -26 0
-129 -27 0
-187 -25 0
-188 -26 0
-189 -27 0
-208 -25 0
-209 -26 0
-210 -27 0
-256 -25 0
-257 -26 0
-258 -27 0
-283 -25 0
-284 -26 0
-285 -27 0
-289 -25 0
-290 -26 0
-291 -27 0
-109 -28 0
-110 -29 0
-111 -30 0
-145 -28 0
-146 -29 0
-147 -30 0
-154 -28 0
-155 -29 0
-156 -30 0
-169 -28 0
-170 -29 0
-171 -30 0
-217 -28 0
-218 -29 0
-219 -30 0
-229 -28 0
-230 -29 0
-231 -30 0
-280 -28 0
-281 -29 0
-282 -30 0
-289 -28 0
-290 -29 0
-291 -30 0
-112 -31 0
-113 -32 0
-114 -33 0
-148 -31 0
-149 -32 0
-150 -33 0
-184 -31 0
-185 -32 0
-186 -33 0
-196 -31 0
-197 -32 0
-198 -33 0
-235 -31 0
-236 -32 0
-237 -33 0
-280 -31 0
-281 -32 0
-282 -33 0
-154 -34 0
-155 -35 0
-156 -36 0
-238 -34 0
-239 -35 0
-240 -36 0
-292 -34 0
-293 -35 0
-294 -36 0
-112 -37 0
-113 -38 0
-114 -39 0
-130 -37 0
-131 -38 0
-132 -39 0
-145 -37 0
-146 -38 0
-147 -39 0
-190 -37 0
-191 -38 0
-192 -39 0
-202 -37 0
-203 -38 0
-204 -39 0
-217 -37 0
-218 -38 0
-219 -39 0
-109 -40 0
-110 -41 0
-111 -42 0
-151 -40 0
-152 -41 0
-153 -42 0
-169 -40 0
-170 -41 0
-171 -42 0
-196 -40 0
-197 -41 0
-198 -42 0
-256 -40 0
-257 -41 0
-258 -42 0
-142 -43 0
-143 -44 0
-144 -45 0
-193 -43 0
-194 -44 0
-195 -45 0
-244 -43 0
-245 -44 0
-246 -45 0
-286 -43 0
-287 -44 0
-288 -45 0
-148 -46 0
-149 -47 0
-150 -48 0
-151 -46 0
-152 -47 0
-153 -48 0
-175 -46 0
-176 -47 0
-177 -48 0
-178 -46 0
-179 -47 0
-180 -48 0
-268 -46 0
-269 -47 0
-270 -48 0
-259 -49 0
-260 -50 0
-261 -51 0
-109 -52 0
-110 -53 0
-111 -54 0
-166 -52 0
-167 -53 0
-168 -54 0
-244 -52 0
-245 -53 0
-246 -54 0
-268 -52 0
-269 -53 0
-270 -54 0
-271 -52 0
-272 -53 0
-273 -54 0
-283 -52 0
-284 -53 0
-285 -54 0
-127 -55 0
-128 -56 0
-129 -57 0
-202 -55 0
-203 -56 0
-204 -57 0
-205 -55 0
-206 -56 0
-207 -57 0
-106 -58 0
-107 -59 0
-108 -60 0
-139 -58 0
-140 -59 0
-141 -60 0
-148 -58 0
-149 -59 0
-150 -60 0
-196 -58 0
-197 -59 0
-198 -60 0
-214 -58 0
-215 -59 0
-216 -60 0
-136 -61 0
-137 -62 0
-138 -63 0
-238 -61 0
-239 -62 0
-240 -63 0
-271 -61 0
-272 -62 0
-273 -63 0
-292 -61 0
-293 -62 0
-294 -63 0
-148 -64 0
-149 -65 0
-150 -66 0
-166 -64 0
-167 -65 0
-168 -66 0
-190 -64 0
-191 -65 0
-192 -66 0
-202 -64 0
-203 -65 0
-204 -66 0
-214 -64 0
-215 -65 0
-216 -66 0
-151 -67 0
-152 -68 0
-153 -69 0
-163 -67 0
-164 -68 0
-165 -69 0
-205 -67 0
-206 -68 0
-207 -69 0
-259 -67 0
-260 -68 0
-261 -69 0
-265 -67 0
-266 -68 0
-267 -69 0
-112 -70 0
-113 -71 0
-114 -72 0
-166 -70 0
-167 -71 0
-168 -72 0
-193 -70 0
-194 -71 0
-195 -72 0
-205 -70 0
-206 -71 0
-207 -72 0
-268 -70 0
-269 -71 0
-270 -72 0
-277 -70 0
-278 -71 0
-279 -72 0
-292 -70 0
-293 -71 0
-294 -72 0
-190 -73 0
-191 -74 0
-192 -75 0
-226 -73 0
-227 -74 0
-228 -75 0
-265 -73 0
-266 -74 0
-267 -75 0
-106 -76 0
-107 -77 0
-108 -78 0
-121 -76 0
-122 -77 0
-123 -78 0
-160 -76 0
-161 -77 0
-162 -78 0
-232 -76 0
-233 -77 0
-234 -78 0
-265 -76 0
-266 -77 0
-267 -78 0
-280 -76 0
-281 -77 0
-282 -78 0
-178 -79 0
-179 -80 0
-180 -81 0
-136 -82 0
-137 -83 0
-138 -84 0
-178 -82 0
-179 -83 0
-180 -84 0
-187 -82 0
-188 -83 0
-189 -84 0
-193 -82 0
-194 -83 0
-195 -84 0
-262 -82 0
-263 -83 0
-264 -84 0
-211 -85 0
-212 -86 0
-213 -87 0
-244 -85 0
-245 -86 0
-246 -87 0
-121 -88 0
-122 -89 0
-123 -90 0
-127 -88 0
-128 -89 0
-129 -90 0
-247 -88 0
-248 -89 0
-249 -90 0
-274 -88 0
-275 -89 0
-276 -90 0
-106 -91 0
-107 -92 0
-108 -93 0
-160 -91 0
-161 -92 0
-162 -93 0
-187 -91 0
-188 -92 0
-189 -93 0
-229 -91 0
-230 -92 0
-231 -93 0
-253 -91 0
-254 -92 0
-255 -93 0
-256 -91 0
-257 -92 0
-258 -93 0
-259 -91 0
-260 -92 0
-261 -93 0
-136 -94 0
-137 -95 0
-138 -96 0
-193 -94 0
-194 -95 0
-195 -96 0
-199 -94 0
-200 -95 0
-201 -96 0
-202 -94 0
-203 -95 0
-204 -96 0
-214 -94 0
-215 -95 0
-216 -96 0
-283 -94 0
-284 -95 0
-285 -96 0
-139 -97 0
-140 -98 0
-141 -99 0
-157 -97 0
-158 -98 0
-159 -99 0
-163 -97 0
-164 -98 0
-165 -99 0
-169 -97 0
-170 -98 0
-171 -99 0
-211 -97 0
-212 -98 0
-213 -99 0
-283 -97 0
-284 -98 0
-285 -99 0
-130 -100 0
-131 -101 0
-132 -102 0
-211 -100 0
-212 -101 0
-213 -102 0
-280 -100 0
-281 -101 0
-282 -102 0
-274 -103 0
-275 -104 0
-276 -105 0
-220 -106 0
-221 -107 0
-222 -108 0
-283 -106 0
-284 -107 0
-285 -108 0
-292 -106 0
-293 -107 0
-294 -108 0
-223 -109 0
-224 -110 0
-225 -111 0
-238 -109 0
-239 -110 0
-240 -111 0
-202 -112 0
-203 -113 0
-204 -114 0
-223 -112 0
-224 -113 0
-225 -114 0
-238 -112 0
-239 -113 0
-240 -114 0
-241 -112 0
-242 -113 0
-243 -114 0
-205 -115 0
-206 -116 0
-207 -117 0
-262 -115 0
-263 -116 0
-264 -117 0
-268 -115 0
-269 -116 0
-270 -117 0
-202 -118 0
-203 -119 0
-204 -120 0
-226 -118 0
-227 -119 0
-228 -120 0
-295 -118 0
-296 -119 0
-297 -120 0
-298 -118 0
-299 -119 0
-300 -120 0
-256 -121 0
-257 -122 0
-258 -123 0
-259 -121 0
-260 -122 0
-261 -123 0
-202 -124 0
-203 -125 0
-204 -126 0
-208 -124 0
-209 -125 0
-210 -126 0
-268 -124 0
-269 -125 0
-270 -126 0
-214 -127 0
-215 -128 0
-216 -129 0
-253 -127 0
-254 -128 0
-255 -129 0
-283 -127 0
-284 -128 0
-285 -129 0
-286 -127 0
-287 -128 0
-288 -129 0
-211 -130 0
-212 -131 0
-213 -132 0
-274 -133 0
-275 -134 0
-276 -135 0
-259 -136 0
-260 -137 0
-261 -138 0
-277 -136 0
-278 -137 0
-279 -138 0
-223 -139 0
-224 -140 0
-225 -141 0
-202 -142 0
-203 -143 0
-204 -144 0
-205 -145 0
-206 -146 0
-207 -147 0
-211 -145 0
-212 -146 0
-213 -147 0
-295 -145 0
-296 -146 0
-297 -147 0
-241 -148 0
-242 -149 0
-243 -150 0
-232 -151 0
-233 -152 0
-234 -153 0
-295 -151 0
-296 -152 0
-297 -153 0
-298 -151 0
-299 -152 0
-300 -153 0
-205 -157 0
-206 -158 0
-207 -159 0
-241 -157 0
-242 -158 0
-243 -159 0
-250 -157 0
-251 -158 0
-252 -159 0
-280 -157 0
-281 -158 0
-282 -159 0
-235 -160 0
-236 -161 0
-237 -162 0
-298 -160 0
-299 -161 0
-300 -162 0
-229 -163 0
-230 -164 0
-231 -165 0
-283 -163 0
-284 -164 0
-285 -165 0
-211 -166 0
-212 -167 0
-213 -168 0
-235 -166 0
-236 -167 0
-237 -168 0
-250 -166 0
-251 -167 0
-252 -168 0
-259 -172 0
-260 -173 0
-261 -174 0
-271 -172 0
-272 -173 0
-273 -174 0
-274 -172 0
-275 -173 0
-276 -174 0
-280 -172 0
-281 -173 0
-282 -174 0
-208 -175 0
-209 -176 0
-210 -177 0
-247 -175 0
-248 -176 0
-249 -177 0
-259 -175 0
-260 -176 0
-261 -177 0
-271 -175 0
-272 -176 0
-273 -177 0
-292 -178 0
-293 -179 0
-294 -180 0
-268 -181 0
-269 -182 0
-270 -183 0
-220 -184 0
-221 -185 0
-222 -186 0
-226 -184 0
-227 -185 0
-228 -186 0
-235 -184 0
-236 -185 0
-237 -186 0
-256 -184 0
-257 -185 0
-258 -186 0
-220 -187 0
-221 -188 0
-222 -189 0
-226 -187 0
-227 -188 0
-228 -189 0
-235 -187 0
-236 -188 0
-237 -189 0
-295 -187 0
-296 -188 0
-297 -189 0
-250 -190 0
-251 -191 0
-252 -192 0
-286 -190 0
-287 -191 0
-288 -192 0
-283 -193 0
-284 -194 0
-285 -195 0
-286 -193 0
-287 -194 0
-288 -195 0
-298 -193 0
-299 -194 0
-300 -195 0
-241 -196 0
-242 -197 0
-243 -198 0
-262 -196 0
-263 -197 0
-264 -198 0
-271 -196 0
-272 -197 0
-273 -198 0
-232 -199 0
-233 -200 0
-234 -201 0
-238 -199 0
-239 -200 0
-240 -201 0
